Route #1: 31 46 35
Route #2: 75 93
Route #3: 28 42 78 65 25
Route #4: 18 10 39
Route #5: 23 61 100
Route #6: 20 41 22 15
Route #7: 30 85 11 79
Route #8: 1 70 54
Route #9: 7 2 45 43 29 36 72 57
Route #10: 63 77 3
Route #11: 76 55 16 69
Route #12: 4 13 74
Route #13: 82 60 59
Route #14: 32 33 53 73 95 24
Route #15: 5 12 58
Route #16: 21 56 94 80
Route #17: 66 84 90 68
Route #18: 40 88 67 44
Route #19: 14 49 6 37 87
Route #20: 92 9 86
Route #21: 8 17
Route #22: 83 51 81
Route #23: 19 97 27
Route #24: 34 64 96 48 26 47 38
Route #25: 89 98 99 62 71
Route #26: 50 91 52
Cost 27591.0000
Time 16.0006